NAME : portcgen-16-13
COMMENT : portcgen N=16, seed=13
TYPE : TSP
DIMENSION : 16
EDGE_WEIGHT_TYPE : EUC_2D
NODE_COORD_SECTION
1 218686 -163115
2 -203401 63992
3 258480 -206199
4 132395 261666
5 -126599 64033
6 137990 1138060
7 250204 204678
8 -259875 -162082
9 316423 -221539
10 -113389 -291945
11 65128 -77840
12 -126665 -102622
13 -144837 64717
14 -346967 -151952
15 -173377 -102016
16 72580 -137607
